
  32    1
  10

   0   0   6 2 3 4 5 6 7 
   2   7   5 18 12 11 10 9 
   2   6   8 31 20 19 18 17 16 14 12 
   3   6   4 17 13 10 9 
   9   4   3 17 12 8 
  10  10   4 23 18 17 12 
   7   5   4 31 23 17 12 
   4  10   7 31 29 25 23 21 20 16 
  10   6   6 31 29 23 21 19 16 
   1  10   7 31 29 25 23 22 21 20 
  10   5   5 31 28 25 22 15 
   4   8   3 25 22 13 
   2   8   2 28 15 
   3   8   5 29 28 27 25 24 
  10   6   3 30 29 21 
   8  10   3 30 28 22 
   6   8   4 29 28 27 24 
  10  10   4 30 29 27 26 
   6  10   3 30 28 24 
   2   8   3 28 27 26 
   6  10   2 27 24 
   7  10   2 27 24 
   9   6   2 27 26 
   3  10   1 26 
   9   6   1 26 
   1  10   1 32
   4   6   1 32
   6  10   1 32
   1   8   1 32
   2  10   1 32
   7   9   1 32
   0   0   0 
